LibMLKEM/why3-cvc5/mlkem.adb_862_56_range_check_1.smt2
;; produced by cvc5.drv ;;
(set-logic ALL)
(set-info :smt-lib-version 2.6)
;;; generated by SMT-LIB2 driver
;;; SMT-LIB2 driver: bit-vectors, common part
;;; SMT-LIB2: integer arithmetic
;; "pow2"
(declare-fun pow2 (Int) Int)

(declare-const two_power_size_minus_one Int)

;; "two_power_size_minus_one_val"
(assert (= two_power_size_minus_one (pow2 (- 8 1))))

;; "min"
(define-fun min ((x Int) (y Int)) Int
  (ite (<= x y) x y))

;; "max"
(define-fun max ((x Int) (y Int)) Int
  (ite (<= x y) y x))

;; "Min_r"
(assert (forall ((x Int) (y Int)) (=> (<= y x) (= (min x y) y))))

;; "Max_l"
(assert (forall ((x Int) (y Int)) (=> (<= y x) (= (max x y) x))))

;; "Min_comm"
(assert (forall ((x Int) (y Int)) (= (min x y) (min y x))))

;; "Max_comm"
(assert (forall ((x Int) (y Int)) (= (max x y) (max y x))))

;; "Min_assoc"
(assert
  (forall ((x Int) (y Int) (z Int)) (= (min (min x y) z) (min x (min y z)))))

;; "Max_assoc"
(assert
  (forall ((x Int) (y Int) (z Int)) (= (max (max x y) z) (max x (max y z)))))

;; "lsr"
(declare-fun lsr ((_ BitVec 16)
  Int) (_ BitVec 16))

(declare-const two_power_size_minus_one1 Int)

;; "two_power_size_minus_one_val"
(assert (= two_power_size_minus_one1 (pow2 (- 16 1))))

;; "lsr_bv_is_lsr"
(assert
  (forall ((x (_ BitVec 16)) (n (_ BitVec 16)))
    (= (bvlshr x n) (lsr x (bv2nat n)))))

(declare-sort u8_bit 0)

;; "in_range"
(define-fun in_range ((x (_ BitVec 8))) Bool
  (and (bvule #x00 x) (bvule x #x01)))

;; "to_rep"
(declare-fun to_rep (u8_bit) (_ BitVec 8))

;; "of_rep"
(declare-fun of_rep ((_ BitVec 8)) u8_bit)

;; "inversion_axiom"
(assert
  (forall ((x u8_bit)) (! (= (of_rep (to_rep x)) x) :pattern ((to_rep x)) )))

;; "range_axiom"
(assert
  (forall ((x u8_bit)) (! (in_range (to_rep x)) :pattern ((to_rep x)) )))

;; "coerce_axiom"
(assert
  (forall ((x (_ BitVec 8)))
    (! (=> (in_range x) (= (to_rep (of_rep x)) x)) :pattern ((to_rep
                                                               (of_rep x))) )))

(declare-const x (_ BitVec 16))

(declare-const t (_ BitVec 16))

;; "in_range"
(define-fun in_range1 ((x1 (_ BitVec 16))) Bool
  (and (bvule #x0000 x1) (bvule x1 #x0D00)))

;; Goal "def'vc"
;; File "mlkem.adb", line 847, characters 0-0
(assert
  (not
  (=>
    (in_range1 x)
    (=>
      (= x t)
      (=>
        (bvult t #x0D01)
        (forall ((o (_ BitVec 16)))
          (=>
            (ite (< 11 16) (= o (bvlshr t ((_ int2bv 16) 11))) (= o #x0000))
            (forall ((o1 (_ BitVec 16)))
              (=>
                (ite (< 10 16)
                  (= o1 (bvlshr t ((_ int2bv 16) 10)))
                  (= o1 #x0000))
                (forall ((o2 (_ BitVec 16)))
                  (=>
                    (ite (< 9 16)
                      (= o2 (bvlshr t ((_ int2bv 16) 9)))
                      (= o2 #x0000))
                    (let ((o3 (bvand o2 #x0001)))
                      (and
                        (bvule ((_ zero_extend 8) #x00) o3)
                        (bvule o3 ((_ zero_extend 8) #x01)))))))))))))))

(check-sat)
